p cnf 969 2490
51 -2 -1 0
-51 2 0
-51 1 0
52 -51 -3 0
-52 51 0
-52 3 0
53 -702 -4 0
-53 702 0
-53 4 0
54 -53 -703 0
-54 53 0
-54 703 0
55 -704 -705 0
-55 704 0
-55 705 0
56 -706 -7 0
-56 706 0
-56 7 0
57 -56 -707 0
-57 56 0
-57 707 0
58 -708 -55 0
-58 708 0
-58 55 0
59 -709 -1 0
-59 709 0
-59 1 0
60 -59 -9 0
-60 59 0
-60 9 0
61 -710 -58 0
-61 710 0
-61 58 0
62 -711 -703 0
-62 711 0
-62 703 0
63 -62 -12 0
-63 62 0
-63 12 0
64 -712 -61 0
-64 712 0
-64 61 0
65 -13 -713 0
-65 13 0
-65 713 0
66 -65 -14 0
-66 65 0
-66 14 0
67 -714 -64 0
-67 714 0
-67 64 0
68 -715 -716 0
-68 715 0
-68 716 0
69 -68 -17 0
-69 68 0
-69 17 0
70 -717 -67 0
-70 717 0
-70 67 0
71 -718 -719 0
-71 718 0
-71 719 0
72 -71 -720 0
-72 71 0
-72 720 0
73 -721 -70 0
-73 721 0
-73 70 0
74 -722 -20 0
-74 722 0
-74 20 0
75 -74 -723 0
-75 74 0
-75 723 0
76 -724 -73 0
-76 724 0
-76 73 0
77 -725 -15 0
-77 725 0
-77 15 0
78 -77 -24 0
-78 77 0
-78 24 0
79 -726 -76 0
-79 726 0
-79 76 0
80 -25 -19 0
-80 25 0
-80 19 0
81 -80 -26 0
-81 80 0
-81 26 0
82 -727 -79 0
-82 727 0
-82 79 0
83 -728 -8 0
-83 728 0
-83 8 0
84 -83 -703 0
-84 83 0
-84 703 0
85 -729 -82 0
-85 729 0
-85 82 0
86 -28 -722 0
-86 28 0
-86 722 0
87 -86 -730 0
-87 86 0
-87 730 0
88 -731 -85 0
-88 731 0
-88 85 0
89 -16 -4 0
-89 16 0
-89 4 0
90 -89 -8 0
-90 89 0
-90 8 0
91 -732 -88 0
-91 732 0
-91 88 0
92 -733 -11 0
-92 733 0
-92 11 0
93 -92 -28 0
-93 92 0
-93 28 0
94 -734 -91 0
-94 734 0
-94 91 0
95 -728 -706 0
-95 728 0
-95 706 0
96 -95 -9 0
-96 95 0
-96 9 0
97 -735 -94 0
-97 735 0
-97 94 0
98 -736 -702 0
-98 736 0
-98 702 0
99 -98 -737 0
-99 98 0
-99 737 0
100 -738 -97 0
-100 738 0
-100 97 0
101 -32 -16 0
-101 32 0
-101 16 0
102 -101 -24 0
-102 101 0
-102 24 0
103 -739 -100 0
-103 739 0
-103 100 0
104 -740 -7 0
-104 740 0
-104 7 0
105 -104 -26 0
-105 104 0
-105 26 0
106 -741 -103 0
-106 741 0
-106 103 0
107 -33 -29 0
-107 33 0
-107 29 0
108 -107 -34 0
-108 107 0
-108 34 0
109 -742 -106 0
-109 742 0
-109 106 0
110 -33 -10 0
-110 33 0
-110 10 0
111 -110 -743 0
-111 110 0
-111 743 0
112 -744 -109 0
-112 744 0
-112 109 0
113 -36 -745 0
-113 36 0
-113 745 0
114 -113 -37 0
-114 113 0
-114 37 0
115 -746 -112 0
-115 746 0
-115 112 0
116 -18 -747 0
-116 18 0
-116 747 0
117 -116 -38 0
-117 116 0
-117 38 0
118 -748 -115 0
-118 748 0
-118 115 0
119 -29 -728 0
-119 29 0
-119 728 0
120 -119 -749 0
-120 119 0
-120 749 0
121 -750 -118 0
-121 750 0
-121 118 0
122 -723 -706 0
-122 723 0
-122 706 0
123 -122 -749 0
-123 122 0
-123 749 0
124 -751 -121 0
-124 751 0
-124 121 0
125 -752 -716 0
-125 752 0
-125 716 0
126 -125 -749 0
-126 125 0
-126 749 0
127 -753 -124 0
-127 753 0
-127 124 0
128 -18 -11 0
-128 18 0
-128 11 0
129 -128 -40 0
-129 128 0
-129 40 0
130 -754 -127 0
-130 754 0
-130 127 0
131 -716 -747 0
-131 716 0
-131 747 0
132 -131 -28 0
-132 131 0
-132 28 0
133 -755 -130 0
-133 755 0
-133 130 0
134 -41 -27 0
-134 41 0
-134 27 0
135 -134 -24 0
-135 134 0
-135 24 0
136 -756 -133 0
-136 756 0
-136 133 0
137 -33 -723 0
-137 33 0
-137 723 0
138 -137 -17 0
-138 137 0
-138 17 0
139 -757 -136 0
-139 757 0
-139 136 0
140 -41 -713 0
-140 41 0
-140 713 0
141 -140 -743 0
-141 140 0
-141 743 0
142 -758 -139 0
-142 758 0
-142 139 0
143 -42 -707 0
-143 42 0
-143 707 0
144 -143 -12 0
-144 143 0
-144 12 0
145 -759 -142 0
-145 759 0
-145 142 0
146 -43 -733 0
-146 43 0
-146 733 0
147 -146 -737 0
-147 146 0
-147 737 0
148 -760 -145 0
-148 760 0
-148 145 0
149 -761 -28 0
-149 761 0
-149 28 0
150 -149 -26 0
-150 149 0
-150 26 0
151 -762 -148 0
-151 762 0
-151 148 0
152 -763 -1 0
-152 763 0
-152 1 0
153 -152 -3 0
-153 152 0
-153 3 0
154 -764 -151 0
-154 764 0
-154 151 0
155 -36 -713 0
-155 36 0
-155 713 0
156 -155 -749 0
-156 155 0
-156 749 0
157 -765 -154 0
-157 765 0
-157 154 0
158 -766 -25 0
-158 766 0
-158 25 0
159 -158 -720 0
-159 158 0
-159 720 0
160 -767 -157 0
-160 767 0
-160 157 0
161 -719 -2 0
-161 719 0
-161 2 0
162 -161 -34 0
-162 161 0
-162 34 0
163 -768 -160 0
-163 768 0
-163 160 0
164 -769 -747 0
-164 769 0
-164 747 0
165 -164 -31 0
-165 164 0
-165 31 0
166 -770 -163 0
-166 770 0
-166 163 0
167 -771 -10 0
-167 771 0
-167 10 0
168 -167 -28 0
-168 167 0
-168 28 0
169 -772 -166 0
-169 772 0
-169 166 0
170 -23 -3 0
-170 23 0
-170 3 0
171 -170 -743 0
-171 170 0
-171 743 0
172 -773 -169 0
-172 773 0
-172 169 0
173 -42 -19 0
-173 42 0
-173 19 0
174 -173 -26 0
-174 173 0
-174 26 0
175 -774 -172 0
-175 774 0
-175 172 0
176 -775 -747 0
-176 775 0
-176 747 0
177 -176 -24 0
-177 176 0
-177 24 0
178 -776 -175 0
-178 776 0
-178 175 0
179 -777 -5 0
-179 777 0
-179 5 0
180 -179 -778 0
-180 179 0
-180 778 0
181 -779 -178 0
-181 779 0
-181 178 0
182 -45 -11 0
-182 45 0
-182 11 0
183 -182 -18 0
-183 182 0
-183 18 0
184 -780 -181 0
-184 780 0
-184 181 0
185 -46 -25 0
-185 46 0
-185 25 0
186 -185 -28 0
-186 185 0
-186 28 0
187 -781 -184 0
-187 781 0
-187 184 0
188 -782 -761 0
-188 782 0
-188 761 0
189 -188 -34 0
-189 188 0
-189 34 0
190 -783 -187 0
-190 783 0
-190 187 0
191 -18 -14 0
-191 18 0
-191 14 0
192 -191 -720 0
-192 191 0
-192 720 0
193 -784 -190 0
-193 784 0
-193 190 0
194 -761 -29 0
-194 761 0
-194 29 0
195 -194 -743 0
-195 194 0
-195 743 0
196 -785 -193 0
-196 785 0
-196 193 0
197 -25 -713 0
-197 25 0
-197 713 0
198 -197 -24 0
-198 197 0
-198 24 0
199 -786 -196 0
-199 786 0
-199 196 0
200 -44 -787 0
-200 44 0
-200 787 0
201 -200 -47 0
-201 200 0
-201 47 0
202 -788 -199 0
-202 788 0
-202 199 0
203 -716 -711 0
-203 716 0
-203 711 0
204 -203 -5 0
-204 203 0
-204 5 0
205 -789 -202 0
-205 789 0
-205 202 0
206 -733 -790 0
-206 733 0
-206 790 0
207 -206 -17 0
-207 206 0
-207 17 0
208 -791 -205 0
-208 791 0
-208 205 0
209 -792 -719 0
-209 792 0
-209 719 0
210 -209 -48 0
-210 209 0
-210 48 0
211 -793 -208 0
-211 793 0
-211 208 0
212 -728 -20 0
-212 728 0
-212 20 0
213 -212 -32 0
-213 212 0
-213 32 0
214 -794 -211 0
-214 794 0
-214 211 0
215 -28 -14 0
-215 28 0
-215 14 0
216 -215 -795 0
-216 215 0
-216 795 0
217 -796 -214 0
-217 796 0
-217 214 0
218 -38 -20 0
-218 38 0
-218 20 0
219 -218 -17 0
-219 218 0
-219 17 0
220 -797 -217 0
-220 797 0
-220 217 0
221 -43 -2 0
-221 43 0
-221 2 0
222 -221 -720 0
-222 221 0
-222 720 0
223 -798 -220 0
-223 798 0
-223 220 0
224 -799 -13 0
-224 799 0
-224 13 0
225 -224 -31 0
-225 224 0
-225 31 0
226 -800 -223 0
-226 800 0
-226 223 0
227 -715 -15 0
-227 715 0
-227 15 0
228 -227 -752 0
-228 227 0
-228 752 0
229 -801 -226 0
-229 801 0
-229 226 0
230 -802 -10 0
-230 802 0
-230 10 0
231 -230 -41 0
-231 230 0
-231 41 0
232 -803 -229 0
-232 803 0
-232 229 0
233 -736 -723 0
-233 736 0
-233 723 0
234 -233 -740 0
-234 233 0
-234 740 0
235 -804 -232 0
-235 804 0
-235 232 0
236 -20 -711 0
-236 20 0
-236 711 0
237 -236 -766 0
-237 236 0
-237 766 0
238 -805 -235 0
-238 805 0
-238 235 0
239 -752 -709 0
-239 752 0
-239 709 0
240 -239 -723 0
-240 239 0
-240 723 0
241 -806 -238 0
-241 806 0
-241 238 0
242 -32 -29 0
-242 32 0
-242 29 0
243 -242 -8 0
-243 242 0
-243 8 0
244 -807 -241 0
-244 807 0
-244 241 0
245 -808 -10 0
-245 808 0
-245 10 0
246 -245 -749 0
-246 245 0
-246 749 0
247 -809 -244 0
-247 809 0
-247 244 0
248 -715 -703 0
-248 715 0
-248 703 0
249 -248 -12 0
-249 248 0
-249 12 0
250 -810 -247 0
-250 810 0
-250 247 0
251 -45 -769 0
-251 45 0
-251 769 0
252 -251 -28 0
-252 251 0
-252 28 0
253 -811 -250 0
-253 811 0
-253 250 0
254 -14 -7 0
-254 14 0
-254 7 0
255 -254 -31 0
-255 254 0
-255 31 0
256 -812 -253 0
-256 812 0
-256 253 0
257 -29 -15 0
-257 29 0
-257 15 0
258 -257 -723 0
-258 257 0
-258 723 0
259 -813 -256 0
-259 813 0
-259 256 0
260 -814 -792 0
-260 814 0
-260 792 0
261 -260 -28 0
-261 260 0
-261 28 0
262 -815 -259 0
-262 815 0
-262 259 0
263 -28 -27 0
-263 28 0
-263 27 0
264 -263 -778 0
-264 263 0
-264 778 0
265 -816 -262 0
-265 816 0
-265 262 0
266 -41 -733 0
-266 41 0
-266 733 0
267 -266 -24 0
-267 266 0
-267 24 0
268 -817 -265 0
-268 817 0
-268 265 0
269 -818 -752 0
-269 818 0
-269 752 0
270 -269 -12 0
-270 269 0
-270 12 0
271 -819 -268 0
-271 819 0
-271 268 0
272 -20 -2 0
-272 20 0
-272 2 0
273 -272 -12 0
-273 272 0
-273 12 0
274 -820 -271 0
-274 820 0
-274 271 0
275 -38 -821 0
-275 38 0
-275 821 0
276 -275 -17 0
-276 275 0
-276 17 0
277 -822 -274 0
-277 822 0
-277 274 0
278 -766 -27 0
-278 766 0
-278 27 0
279 -278 -821 0
-279 278 0
-279 821 0
280 -823 -277 0
-280 823 0
-280 277 0
281 -716 -706 0
-281 716 0
-281 706 0
282 -281 -737 0
-282 281 0
-282 737 0
283 -824 -280 0
-283 824 0
-283 280 0
284 -763 -2 0
-284 763 0
-284 2 0
285 -284 -730 0
-285 284 0
-285 730 0
286 -825 -283 0
-286 825 0
-286 283 0
287 -21 -11 0
-287 21 0
-287 11 0
288 -287 -34 0
-288 287 0
-288 34 0
289 -826 -286 0
-289 826 0
-289 286 0
290 -49 -43 0
-290 49 0
-290 43 0
291 -290 -44 0
-291 290 0
-291 44 0
292 -827 -289 0
-292 827 0
-292 289 0
293 -45 -736 0
-293 45 0
-293 736 0
294 -293 -36 0
-294 293 0
-294 36 0
295 -828 -292 0
-295 828 0
-295 292 0
296 -766 -777 0
-296 766 0
-296 777 0
297 -296 -36 0
-297 296 0
-297 36 0
298 -829 -295 0
-298 829 0
-298 295 0
299 -10 -7 0
-299 10 0
-299 7 0
300 -299 -707 0
-300 299 0
-300 707 0
301 -830 -298 0
-301 830 0
-301 298 0
302 -747 -831 0
-302 747 0
-302 831 0
303 -302 -40 0
-303 302 0
-303 40 0
304 -832 -301 0
-304 832 0
-304 301 0
305 -37 -4 0
-305 37 0
-305 4 0
306 -305 -749 0
-306 305 0
-306 749 0
307 -833 -304 0
-307 833 0
-307 304 0
308 -716 -4 0
-308 716 0
-308 4 0
309 -308 -769 0
-309 308 0
-309 769 0
310 -834 -307 0
-310 834 0
-310 307 0
311 -818 -37 0
-311 818 0
-311 37 0
312 -311 -835 0
-312 311 0
-312 835 0
313 -836 -310 0
-313 836 0
-313 310 0
314 -818 -44 0
-314 818 0
-314 44 0
315 -314 -795 0
-315 314 0
-315 795 0
316 -837 -313 0
-316 837 0
-316 313 0
317 -752 -4 0
-317 752 0
-317 4 0
318 -317 -30 0
-318 317 0
-318 30 0
319 -838 -316 0
-319 838 0
-319 316 0
320 -839 -777 0
-320 839 0
-320 777 0
321 -320 -769 0
-321 320 0
-321 769 0
322 -840 -319 0
-322 840 0
-322 319 0
323 -45 -709 0
-323 45 0
-323 709 0
324 -323 -802 0
-324 323 0
-324 802 0
325 -841 -322 0
-325 841 0
-325 322 0
326 -719 -713 0
-326 719 0
-326 713 0
327 -326 -747 0
-327 326 0
-327 747 0
328 -842 -325 0
-328 842 0
-328 325 0
329 -21 -747 0
-329 21 0
-329 747 0
330 -329 -27 0
-330 329 0
-330 27 0
331 -843 -328 0
-331 843 0
-331 328 0
332 -736 -715 0
-332 736 0
-332 715 0
333 -332 -706 0
-333 332 0
-333 706 0
334 -844 -331 0
-334 844 0
-334 331 0
335 -799 -36 0
-335 799 0
-335 36 0
336 -335 -743 0
-336 335 0
-336 743 0
337 -845 -334 0
-337 845 0
-337 334 0
338 -29 -18 0
-338 29 0
-338 18 0
339 -338 -17 0
-339 338 0
-339 17 0
340 -846 -337 0
-340 846 0
-340 337 0
341 -777 -24 0
-341 777 0
-341 24 0
342 -341 -749 0
-342 341 0
-342 749 0
343 -847 -340 0
-343 847 0
-343 340 0
344 -32 -13 0
-344 32 0
-344 13 0
345 -344 -740 0
-345 344 0
-345 740 0
346 -848 -343 0
-346 848 0
-346 343 0
347 -27 -777 0
-347 27 0
-347 777 0
348 -347 -821 0
-348 347 0
-348 821 0
349 -849 -346 0
-349 849 0
-349 346 0
350 -711 -5 0
-350 711 0
-350 5 0
351 -350 -32 0
-351 350 0
-351 32 0
352 -850 -349 0
-352 850 0
-352 349 0
353 -45 -23 0
-353 45 0
-353 23 0
354 -353 -31 0
-354 353 0
-354 31 0
355 -851 -352 0
-355 851 0
-355 352 0
356 -30 -18 0
-356 30 0
-356 18 0
357 -356 -720 0
-357 356 0
-357 720 0
358 -852 -355 0
-358 852 0
-358 355 0
359 -48 -21 0
-359 48 0
-359 21 0
360 -359 -37 0
-360 359 0
-360 37 0
361 -853 -358 0
-361 853 0
-361 358 0
362 -782 -10 0
-362 782 0
-362 10 0
363 -362 -28 0
-363 362 0
-363 28 0
364 -854 -361 0
-364 854 0
-364 361 0
365 -28 -1 0
-365 28 0
-365 1 0
366 -365 -730 0
-366 365 0
-366 730 0
367 -855 -364 0
-367 855 0
-367 364 0
368 -45 -41 0
-368 45 0
-368 41 0
369 -368 -835 0
-369 368 0
-369 835 0
370 -856 -367 0
-370 856 0
-370 367 0
371 -709 -7 0
-371 709 0
-371 7 0
372 -371 -48 0
-372 371 0
-372 48 0
373 -857 -370 0
-373 857 0
-373 370 0
374 -775 -725 0
-374 775 0
-374 725 0
375 -374 -723 0
-375 374 0
-375 723 0
376 -858 -373 0
-376 858 0
-376 373 0
377 -29 -722 0
-377 29 0
-377 722 0
378 -377 -771 0
-378 377 0
-378 771 0
379 -859 -376 0
-379 859 0
-379 376 0
380 -818 -716 0
-380 818 0
-380 716 0
381 -380 -47 0
-381 380 0
-381 47 0
382 -860 -379 0
-382 860 0
-382 379 0
383 -839 -787 0
-383 839 0
-383 787 0
384 -383 -778 0
-384 383 0
-384 778 0
385 -861 -382 0
-385 861 0
-385 382 0
386 -808 -4 0
-386 808 0
-386 4 0
387 -386 -703 0
-387 386 0
-387 703 0
388 -862 -385 0
-388 862 0
-388 385 0
389 -48 -728 0
-389 48 0
-389 728 0
390 -389 -737 0
-390 389 0
-390 737 0
391 -863 -388 0
-391 863 0
-391 388 0
392 -733 -24 0
-392 733 0
-392 24 0
393 -392 -8 0
-393 392 0
-393 8 0
394 -864 -391 0
-394 864 0
-394 391 0
395 -752 -723 0
-395 752 0
-395 723 0
396 -395 -17 0
-396 395 0
-396 17 0
397 -865 -394 0
-397 865 0
-397 394 0
398 -792 -22 0
-398 792 0
-398 22 0
399 -398 -745 0
-399 398 0
-399 745 0
400 -866 -397 0
-400 866 0
-400 397 0
401 -792 -4 0
-401 792 0
-401 4 0
402 -401 -769 0
-402 401 0
-402 769 0
403 -867 -400 0
-403 867 0
-403 400 0
404 -715 -709 0
-404 715 0
-404 709 0
405 -404 -802 0
-405 404 0
-405 802 0
406 -868 -403 0
-406 868 0
-406 403 0
407 -10 -5 0
-407 10 0
-407 5 0
408 -407 -12 0
-408 407 0
-408 12 0
409 -869 -406 0
-409 869 0
-409 406 0
410 -39 -709 0
-410 39 0
-410 709 0
411 -410 -766 0
-411 410 0
-411 766 0
412 -870 -409 0
-412 870 0
-412 409 0
413 -44 -42 0
-413 44 0
-413 42 0
414 -413 -743 0
-414 413 0
-414 743 0
415 -871 -412 0
-415 871 0
-415 412 0
416 -835 -17 0
-416 835 0
-416 17 0
417 -416 -9 0
-417 416 0
-417 9 0
418 -872 -415 0
-418 872 0
-418 415 0
419 -36 -28 0
-419 36 0
-419 28 0
420 -419 -720 0
-420 419 0
-420 720 0
421 -873 -418 0
-421 873 0
-421 418 0
422 -782 -736 0
-422 782 0
-422 736 0
423 -422 -808 0
-423 422 0
-423 808 0
424 -874 -421 0
-424 874 0
-424 421 0
425 -782 -45 0
-425 782 0
-425 45 0
426 -425 -41 0
-426 425 0
-426 41 0
427 -875 -424 0
-427 875 0
-427 424 0
428 -22 -18 0
-428 22 0
-428 18 0
429 -428 -42 0
-429 428 0
-429 42 0
430 -876 -427 0
-430 876 0
-430 427 0
431 -389 -44 0
-431 389 0
-431 44 0
432 -877 -430 0
-432 877 0
-432 430 0
433 -766 -21 0
-433 766 0
-433 21 0
434 -433 -44 0
-434 433 0
-434 44 0
435 -878 -432 0
-435 878 0
-435 432 0
436 -733 -747 0
-436 733 0
-436 747 0
437 -436 -787 0
-437 436 0
-437 787 0
438 -879 -435 0
-438 879 0
-438 435 0
439 -766 -1 0
-439 766 0
-439 1 0
440 -439 -749 0
-440 439 0
-440 749 0
441 -880 -438 0
-441 880 0
-441 438 0
442 -752 -831 0
-442 752 0
-442 831 0
443 -442 -48 0
-443 442 0
-443 48 0
444 -881 -441 0
-444 881 0
-444 441 0
445 -16 -10 0
-445 16 0
-445 10 0
446 -445 -703 0
-446 445 0
-446 703 0
447 -882 -444 0
-447 882 0
-447 444 0
448 -16 -716 0
-448 16 0
-448 716 0
449 -448 -761 0
-449 448 0
-449 761 0
450 -883 -447 0
-450 883 0
-450 447 0
451 -884 -777 0
-451 884 0
-451 777 0
452 -451 -43 0
-452 451 0
-452 43 0
453 -885 -450 0
-453 885 0
-453 450 0
454 -36 -766 0
-454 36 0
-454 766 0
455 -454 -32 0
-455 454 0
-455 32 0
456 -886 -453 0
-456 886 0
-456 453 0
457 -707 -703 0
-457 707 0
-457 703 0
458 -457 -26 0
-458 457 0
-458 26 0
459 -887 -456 0
-459 887 0
-459 456 0
460 -818 -16 0
-460 818 0
-460 16 0
461 -460 -707 0
-461 460 0
-461 707 0
462 -888 -459 0
-462 888 0
-462 459 0
463 -155 -835 0
-463 155 0
-463 835 0
464 -889 -462 0
-464 889 0
-464 462 0
465 -890 -5 0
-465 890 0
-465 5 0
466 -465 -42 0
-466 465 0
-466 42 0
467 -891 -464 0
-467 891 0
-467 464 0
468 -30 -702 0
-468 30 0
-468 702 0
469 -468 -737 0
-469 468 0
-469 737 0
470 -892 -467 0
-470 892 0
-470 467 0
471 -43 -725 0
-471 43 0
-471 725 0
472 -471 -9 0
-472 471 0
-472 9 0
473 -893 -470 0
-473 893 0
-473 470 0
474 -41 -716 0
-474 41 0
-474 716 0
475 -474 -707 0
-475 474 0
-475 707 0
476 -894 -473 0
-476 894 0
-476 473 0
477 -775 -718 0
-477 775 0
-477 718 0
478 -477 -7 0
-478 477 0
-478 7 0
479 -895 -476 0
-479 895 0
-479 476 0
480 -33 -702 0
-480 33 0
-480 702 0
481 -480 -9 0
-481 480 0
-481 9 0
482 -896 -479 0
-482 896 0
-482 479 0
483 -818 -709 0
-483 818 0
-483 709 0
484 -483 -702 0
-484 483 0
-484 702 0
485 -897 -482 0
-485 897 0
-485 482 0
486 -42 -790 0
-486 42 0
-486 790 0
487 -486 -769 0
-487 486 0
-487 769 0
488 -898 -485 0
-488 898 0
-488 485 0
489 -769 -8 0
-489 769 0
-489 8 0
490 -489 -795 0
-490 489 0
-490 795 0
491 -899 -488 0
-491 899 0
-491 488 0
492 -22 -7 0
-492 22 0
-492 7 0
493 -492 -743 0
-493 492 0
-493 743 0
494 -900 -491 0
-494 900 0
-494 491 0
495 -839 -40 0
-495 839 0
-495 40 0
496 -495 -35 0
-496 495 0
-496 35 0
497 -901 -494 0
-497 901 0
-497 494 0
498 -38 -36 0
-498 38 0
-498 36 0
499 -498 -839 0
-499 498 0
-499 839 0
500 -902 -497 0
-500 902 0
-500 497 0
501 -17 -5 0
-501 17 0
-501 5 0
502 -501 -835 0
-502 501 0
-502 835 0
503 -903 -500 0
-503 903 0
-503 500 0
504 -38 -25 0
-504 38 0
-504 25 0
505 -504 -44 0
-505 504 0
-505 44 0
506 -904 -503 0
-506 904 0
-506 503 0
507 -37 -723 0
-507 37 0
-507 723 0
508 -507 -749 0
-508 507 0
-508 749 0
509 -905 -506 0
-509 905 0
-509 506 0
510 -884 -1 0
-510 884 0
-510 1 0
511 -510 -8 0
-511 510 0
-511 8 0
512 -906 -509 0
-512 906 0
-512 509 0
513 -728 -5 0
-513 728 0
-513 5 0
514 -513 -718 0
-514 513 0
-514 718 0
515 -907 -512 0
-515 907 0
-515 512 0
516 -38 -18 0
-516 38 0
-516 18 0
517 -516 -787 0
-517 516 0
-517 787 0
518 -908 -515 0
-518 908 0
-518 515 0
519 -761 -722 0
-519 761 0
-519 722 0
520 -519 -702 0
-520 519 0
-520 702 0
521 -909 -518 0
-521 909 0
-521 518 0
522 -46 -14 0
-522 46 0
-522 14 0
523 -522 -795 0
-523 522 0
-523 795 0
524 -910 -521 0
-524 910 0
-524 521 0
525 -766 -763 0
-525 766 0
-525 763 0
526 -525 -24 0
-526 525 0
-526 24 0
527 -911 -524 0
-527 911 0
-527 524 0
528 -21 -709 0
-528 21 0
-528 709 0
529 -528 -44 0
-529 528 0
-529 44 0
530 -912 -527 0
-530 912 0
-530 527 0
531 -723 -702 0
-531 723 0
-531 702 0
532 -531 -7 0
-532 531 0
-532 7 0
533 -913 -530 0
-533 913 0
-533 530 0
534 -814 -702 0
-534 814 0
-534 702 0
535 -534 -749 0
-535 534 0
-535 749 0
536 -914 -533 0
-536 914 0
-536 533 0
537 -45 -19 0
-537 45 0
-537 19 0
538 -537 -725 0
-538 537 0
-538 725 0
539 -915 -536 0
-539 915 0
-539 536 0
540 -22 -718 0
-540 22 0
-540 718 0
541 -540 -769 0
-541 540 0
-541 769 0
542 -916 -539 0
-542 916 0
-542 539 0
543 -884 -15 0
-543 884 0
-543 15 0
544 -543 -831 0
-544 543 0
-544 831 0
545 -917 -542 0
-545 917 0
-545 542 0
546 -890 -39 0
-546 890 0
-546 39 0
547 -546 -8 0
-547 546 0
-547 8 0
548 -918 -545 0
-548 918 0
-548 545 0
549 -40 -709 0
-549 40 0
-549 709 0
550 -549 -707 0
-550 549 0
-550 707 0
551 -919 -548 0
-551 919 0
-551 548 0
552 -890 -30 0
-552 890 0
-552 30 0
553 -552 -769 0
-553 552 0
-553 769 0
554 -920 -551 0
-554 920 0
-554 551 0
555 -50 -777 0
-555 50 0
-555 777 0
556 -555 -782 0
-556 555 0
-556 782 0
557 -921 -554 0
-557 921 0
-557 554 0
558 -18 -7 0
-558 18 0
-558 7 0
559 -558 -703 0
-559 558 0
-559 703 0
560 -922 -557 0
-560 922 0
-560 557 0
561 -775 -715 0
-561 775 0
-561 715 0
562 -561 -3 0
-562 561 0
-562 3 0
563 -923 -560 0
-563 923 0
-563 560 0
564 -49 -13 0
-564 49 0
-564 13 0
565 -564 -775 0
-565 564 0
-565 775 0
566 -924 -563 0
-566 924 0
-566 563 0
567 -45 -30 0
-567 45 0
-567 30 0
568 -567 -703 0
-568 567 0
-568 703 0
569 -925 -566 0
-569 925 0
-569 566 0
570 -38 -709 0
-570 38 0
-570 709 0
571 -570 -821 0
-571 570 0
-571 821 0
572 -926 -569 0
-572 926 0
-572 569 0
573 -14 -790 0
-573 14 0
-573 790 0
574 -573 -737 0
-574 573 0
-574 737 0
575 -927 -572 0
-575 927 0
-575 572 0
576 -778 -728 0
-576 778 0
-576 728 0
577 -576 -730 0
-577 576 0
-577 730 0
578 -928 -575 0
-578 928 0
-578 575 0
579 -23 -723 0
-579 23 0
-579 723 0
580 -579 -720 0
-580 579 0
-580 720 0
581 -929 -578 0
-581 929 0
-581 578 0
582 -752 -25 0
-582 752 0
-582 25 0
583 -582 -725 0
-583 582 0
-583 725 0
584 -930 -581 0
-584 930 0
-584 581 0
585 -46 -835 0
-585 46 0
-585 835 0
586 -585 -44 0
-586 585 0
-586 44 0
587 -931 -584 0
-587 931 0
-587 584 0
588 -27 -787 0
-588 27 0
-588 787 0
589 -588 -778 0
-589 588 0
-589 778 0
590 -932 -587 0
-590 932 0
-590 587 0
591 -41 -6 0
-591 41 0
-591 6 0
592 -591 -737 0
-592 591 0
-592 737 0
593 -933 -590 0
-593 933 0
-593 590 0
594 -802 -713 0
-594 802 0
-594 713 0
595 -594 -40 0
-595 594 0
-595 40 0
596 -934 -593 0
-596 934 0
-596 593 0
597 -49 -39 0
-597 49 0
-597 39 0
598 -597 -8 0
-598 597 0
-598 8 0
599 -935 -596 0
-599 935 0
-599 596 0
600 -747 -1 0
-600 747 0
-600 1 0
601 -600 -839 0
-601 600 0
-601 839 0
602 -936 -599 0
-602 936 0
-602 599 0
603 -43 -16 0
-603 43 0
-603 16 0
604 -603 -839 0
-604 603 0
-604 839 0
605 -937 -602 0
-605 937 0
-605 602 0
606 -769 -736 0
-606 769 0
-606 736 0
607 -606 -26 0
-607 606 0
-607 26 0
608 -938 -605 0
-608 938 0
-608 605 0
609 -22 -15 0
-609 22 0
-609 15 0
610 -609 -17 0
-610 609 0
-610 17 0
611 -939 -608 0
-611 939 0
-611 608 0
612 -792 -11 0
-612 792 0
-612 11 0
613 -612 -706 0
-613 612 0
-613 706 0
614 -940 -611 0
-614 940 0
-614 611 0
615 -41 -22 0
-615 41 0
-615 22 0
616 -615 -706 0
-616 615 0
-616 706 0
617 -941 -614 0
-617 941 0
-617 614 0
618 -33 -733 0
-618 33 0
-618 733 0
619 -618 -808 0
-619 618 0
-619 808 0
620 -942 -617 0
-620 942 0
-620 617 0
621 -49 -792 0
-621 49 0
-621 792 0
622 -621 -737 0
-622 621 0
-622 737 0
623 -943 -620 0
-623 943 0
-623 620 0
624 -49 -782 0
-624 49 0
-624 782 0
625 -624 -831 0
-625 624 0
-625 831 0
626 -944 -623 0
-626 944 0
-626 623 0
627 -37 -14 0
-627 37 0
-627 14 0
628 -627 -720 0
-628 627 0
-628 720 0
629 -945 -626 0
-629 945 0
-629 626 0
630 -799 -702 0
-630 799 0
-630 702 0
631 -630 -795 0
-631 630 0
-631 795 0
632 -946 -629 0
-632 946 0
-632 629 0
633 -33 -18 0
-633 33 0
-633 18 0
634 -633 -745 0
-634 633 0
-634 745 0
635 -947 -632 0
-635 947 0
-635 632 0
636 -43 -42 0
-636 43 0
-636 42 0
637 -636 -814 0
-637 636 0
-637 814 0
638 -948 -635 0
-638 948 0
-638 635 0
639 -36 -736 0
-639 36 0
-639 736 0
640 -639 -723 0
-640 639 0
-640 723 0
641 -949 -638 0
-641 949 0
-641 638 0
642 -782 -818 0
-642 782 0
-642 818 0
643 -642 -7 0
-643 642 0
-643 7 0
644 -950 -641 0
-644 950 0
-644 641 0
645 -44 -22 0
-645 44 0
-645 22 0
646 -645 -730 0
-646 645 0
-646 730 0
647 -951 -644 0
-647 951 0
-647 644 0
648 -722 -15 0
-648 722 0
-648 15 0
649 -648 -706 0
-649 648 0
-649 706 0
650 -952 -647 0
-650 952 0
-650 647 0
651 -775 -15 0
-651 775 0
-651 15 0
652 -651 -40 0
-652 651 0
-652 40 0
653 -953 -650 0
-653 953 0
-653 650 0
654 -28 -777 0
-654 28 0
-654 777 0
655 -654 -799 0
-655 654 0
-655 799 0
656 -954 -653 0
-656 954 0
-656 653 0
657 -36 -725 0
-657 36 0
-657 725 0
658 -657 -730 0
-658 657 0
-658 730 0
659 -955 -656 0
-659 955 0
-659 656 0
660 -723 -831 0
-660 723 0
-660 831 0
661 -660 -31 0
-661 660 0
-661 31 0
662 -956 -659 0
-662 956 0
-662 659 0
663 -48 -40 0
-663 48 0
-663 40 0
664 -663 -795 0
-664 663 0
-664 795 0
665 -957 -662 0
-665 957 0
-665 662 0
666 -21 -19 0
-666 21 0
-666 19 0
667 -666 -808 0
-667 666 0
-667 808 0
668 -958 -665 0
-668 958 0
-668 665 0
669 -45 -792 0
-669 45 0
-669 792 0
670 -669 -8 0
-670 669 0
-670 8 0
671 -959 -668 0
-671 959 0
-671 668 0
672 -36 -3 0
-672 36 0
-672 3 0
673 -672 -795 0
-673 672 0
-673 795 0
674 -960 -671 0
-674 960 0
-674 671 0
675 -19 -10 0
-675 19 0
-675 10 0
676 -675 -44 0
-676 675 0
-676 44 0
677 -961 -674 0
-677 961 0
-677 674 0
678 -39 -24 0
-678 39 0
-678 24 0
679 -678 -706 0
-679 678 0
-679 706 0
680 -962 -677 0
-680 962 0
-680 677 0
681 -884 -29 0
-681 884 0
-681 29 0
682 -681 -13 0
-682 681 0
-682 13 0
683 -963 -680 0
-683 963 0
-683 680 0
684 -30 -787 0
-684 30 0
-684 787 0
685 -684 -745 0
-685 684 0
-685 745 0
686 -964 -683 0
-686 964 0
-686 683 0
687 -722 -13 0
-687 722 0
-687 13 0
688 -687 -40 0
-688 687 0
-688 40 0
689 -965 -686 0
-689 965 0
-689 686 0
690 -818 -4 0
-690 818 0
-690 4 0
691 -690 -703 0
-691 690 0
-691 703 0
692 -966 -689 0
-692 966 0
-692 689 0
693 -747 -790 0
-693 747 0
-693 790 0
694 -693 -41 0
-694 693 0
-694 41 0
695 -967 -692 0
-695 967 0
-695 692 0
696 -808 -719 0
-696 808 0
-696 719 0
697 -696 -8 0
-697 696 0
-697 8 0
698 -968 -695 0
-698 968 0
-698 695 0
699 -775 -13 0
-699 775 0
-699 13 0
700 -699 -795 0
-700 699 0
-700 795 0
701 -969 -698 0
-701 969 0
-701 698 0
-702 -5 0
702 5 0
-703 -6 0
703 6 0
-704 -54 0
704 54 0
-705 -52 0
705 52 0
-706 -8 0
706 8 0
-707 -9 0
707 9 0
-708 -57 0
708 57 0
-709 -10 0
709 10 0
-710 -60 0
710 60 0
-711 -11 0
711 11 0
-712 -63 0
712 63 0
-713 -1 0
713 1 0
-714 -66 0
714 66 0
-715 -16 0
715 16 0
-716 -15 0
716 15 0
-717 -69 0
717 69 0
-718 -19 0
718 19 0
-719 -18 0
719 18 0
-720 -3 0
720 3 0
-721 -72 0
721 72 0
-722 -21 0
722 21 0
-723 -22 0
723 22 0
-724 -75 0
724 75 0
-725 -23 0
725 23 0
-726 -78 0
726 78 0
-727 -81 0
727 81 0
-728 -27 0
728 27 0
-729 -84 0
729 84 0
-730 -26 0
730 26 0
-731 -87 0
731 87 0
-732 -90 0
732 90 0
-733 -29 0
733 29 0
-734 -93 0
734 93 0
-735 -96 0
735 96 0
-736 -30 0
736 30 0
-737 -31 0
737 31 0
-738 -99 0
738 99 0
-739 -102 0
739 102 0
-740 -24 0
740 24 0
-741 -105 0
741 105 0
-742 -108 0
742 108 0
-743 -35 0
743 35 0
-744 -111 0
744 111 0
-745 -34 0
745 34 0
-746 -114 0
746 114 0
-747 -13 0
747 13 0
-748 -117 0
748 117 0
-749 -14 0
749 14 0
-750 -120 0
750 120 0
-751 -123 0
751 123 0
-752 -39 0
752 39 0
-753 -126 0
753 126 0
-754 -129 0
754 129 0
-755 -132 0
755 132 0
-756 -135 0
756 135 0
-757 -138 0
757 138 0
-758 -141 0
758 141 0
-759 -144 0
759 144 0
-760 -147 0
760 147 0
-761 -38 0
761 38 0
-762 -150 0
762 150 0
-763 -20 0
763 20 0
-764 -153 0
764 153 0
-765 -156 0
765 156 0
-766 -33 0
766 33 0
-767 -159 0
767 159 0
-768 -162 0
768 162 0
-769 -37 0
769 37 0
-770 -165 0
770 165 0
-771 -42 0
771 42 0
-772 -168 0
772 168 0
-773 -171 0
773 171 0
-774 -174 0
774 174 0
-775 -41 0
775 41 0
-776 -177 0
776 177 0
-777 -25 0
777 25 0
-778 -44 0
778 44 0
-779 -180 0
779 180 0
-780 -183 0
780 183 0
-781 -186 0
781 186 0
-782 -46 0
782 46 0
-783 -189 0
783 189 0
-784 -192 0
784 192 0
-785 -195 0
785 195 0
-786 -198 0
786 198 0
-787 -17 0
787 17 0
-788 -201 0
788 201 0
-789 -204 0
789 204 0
-790 -4 0
790 4 0
-791 -207 0
791 207 0
-792 -36 0
792 36 0
-793 -210 0
793 210 0
-794 -213 0
794 213 0
-795 -12 0
795 12 0
-796 -216 0
796 216 0
-797 -219 0
797 219 0
-798 -222 0
798 222 0
-799 -47 0
799 47 0
-800 -225 0
800 225 0
-801 -228 0
801 228 0
-802 -49 0
802 49 0
-803 -231 0
803 231 0
-804 -234 0
804 234 0
-805 -237 0
805 237 0
-806 -240 0
806 240 0
-807 -243 0
807 243 0
-808 -32 0
808 32 0
-809 -246 0
809 246 0
-810 -249 0
810 249 0
-811 -252 0
811 252 0
-812 -255 0
812 255 0
-813 -258 0
813 258 0
-814 -40 0
814 40 0
-815 -261 0
815 261 0
-816 -264 0
816 264 0
-817 -267 0
817 267 0
-818 -45 0
818 45 0
-819 -270 0
819 270 0
-820 -273 0
820 273 0
-821 -2 0
821 2 0
-822 -276 0
822 276 0
-823 -279 0
823 279 0
-824 -282 0
824 282 0
-825 -285 0
825 285 0
-826 -288 0
826 288 0
-827 -291 0
827 291 0
-828 -294 0
828 294 0
-829 -297 0
829 297 0
-830 -300 0
830 300 0
-831 -7 0
831 7 0
-832 -303 0
832 303 0
-833 -306 0
833 306 0
-834 -309 0
834 309 0
-835 -28 0
835 28 0
-836 -312 0
836 312 0
-837 -315 0
837 315 0
-838 -318 0
838 318 0
-839 -48 0
839 48 0
-840 -321 0
840 321 0
-841 -324 0
841 324 0
-842 -327 0
842 327 0
-843 -330 0
843 330 0
-844 -333 0
844 333 0
-845 -336 0
845 336 0
-846 -339 0
846 339 0
-847 -342 0
847 342 0
-848 -345 0
848 345 0
-849 -348 0
849 348 0
-850 -351 0
850 351 0
-851 -354 0
851 354 0
-852 -357 0
852 357 0
-853 -360 0
853 360 0
-854 -363 0
854 363 0
-855 -366 0
855 366 0
-856 -369 0
856 369 0
-857 -372 0
857 372 0
-858 -375 0
858 375 0
-859 -378 0
859 378 0
-860 -381 0
860 381 0
-861 -384 0
861 384 0
-862 -387 0
862 387 0
-863 -390 0
863 390 0
-864 -393 0
864 393 0
-865 -396 0
865 396 0
-866 -399 0
866 399 0
-867 -402 0
867 402 0
-868 -405 0
868 405 0
-869 -408 0
869 408 0
-870 -411 0
870 411 0
-871 -414 0
871 414 0
-872 -417 0
872 417 0
-873 -420 0
873 420 0
-874 -423 0
874 423 0
-875 -426 0
875 426 0
-876 -429 0
876 429 0
-877 -431 0
877 431 0
-878 -434 0
878 434 0
-879 -437 0
879 437 0
-880 -440 0
880 440 0
-881 -443 0
881 443 0
-882 -446 0
882 446 0
-883 -449 0
883 449 0
-884 -50 0
884 50 0
-885 -452 0
885 452 0
-886 -455 0
886 455 0
-887 -458 0
887 458 0
-888 -461 0
888 461 0
-889 -463 0
889 463 0
-890 -43 0
890 43 0
-891 -466 0
891 466 0
-892 -469 0
892 469 0
-893 -472 0
893 472 0
-894 -475 0
894 475 0
-895 -478 0
895 478 0
-896 -481 0
896 481 0
-897 -484 0
897 484 0
-898 -487 0
898 487 0
-899 -490 0
899 490 0
-900 -493 0
900 493 0
-901 -496 0
901 496 0
-902 -499 0
902 499 0
-903 -502 0
903 502 0
-904 -505 0
904 505 0
-905 -508 0
905 508 0
-906 -511 0
906 511 0
-907 -514 0
907 514 0
-908 -517 0
908 517 0
-909 -520 0
909 520 0
-910 -523 0
910 523 0
-911 -526 0
911 526 0
-912 -529 0
912 529 0
-913 -532 0
913 532 0
-914 -535 0
914 535 0
-915 -538 0
915 538 0
-916 -541 0
916 541 0
-917 -544 0
917 544 0
-918 -547 0
918 547 0
-919 -550 0
919 550 0
-920 -553 0
920 553 0
-921 -556 0
921 556 0
-922 -559 0
922 559 0
-923 -562 0
923 562 0
-924 -565 0
924 565 0
-925 -568 0
925 568 0
-926 -571 0
926 571 0
-927 -574 0
927 574 0
-928 -577 0
928 577 0
-929 -580 0
929 580 0
-930 -583 0
930 583 0
-931 -586 0
931 586 0
-932 -589 0
932 589 0
-933 -592 0
933 592 0
-934 -595 0
934 595 0
-935 -598 0
935 598 0
-936 -601 0
936 601 0
-937 -604 0
937 604 0
-938 -607 0
938 607 0
-939 -610 0
939 610 0
-940 -613 0
940 613 0
-941 -616 0
941 616 0
-942 -619 0
942 619 0
-943 -622 0
943 622 0
-944 -625 0
944 625 0
-945 -628 0
945 628 0
-946 -631 0
946 631 0
-947 -634 0
947 634 0
-948 -637 0
948 637 0
-949 -640 0
949 640 0
-950 -643 0
950 643 0
-951 -646 0
951 646 0
-952 -649 0
952 649 0
-953 -652 0
953 652 0
-954 -655 0
954 655 0
-955 -658 0
955 658 0
-956 -661 0
956 661 0
-957 -664 0
957 664 0
-958 -667 0
958 667 0
-959 -670 0
959 670 0
-960 -673 0
960 673 0
-961 -676 0
961 676 0
-962 -679 0
962 679 0
-963 -682 0
963 682 0
-964 -685 0
964 685 0
-965 -688 0
965 688 0
-966 -691 0
966 691 0
-967 -694 0
967 694 0
-968 -697 0
968 697 0
-969 -700 0
969 700 0
701 0
